m = 10;
n = 13;
S = 
[
	[ 0 0 0 0 0 0 0 0 0 0 ]
	[ 1 1 1 1 1 0 1 1 1 0 ]
	[ 1 0 1 1 0 0 1 0 0 0 ]
	[ 0 0 0 0 0 0 1 0 0 1 ]
	[ 0 1 1 1 0 0 0 1 1 0 ]
	[ 0 0 0 0 0 0 1 0 0 0 ]
	[ 0 0 0 1 0 1 1 0 1 1 ]
	[ 1 0 1 0 1 0 1 0 0 0 ]
	[ 0 0 1 0 1 0 1 0 0 1 ]
	[ 1 0 1 1 0 1 1 0 1 1 ]
	[ 1 0 1 1 1 0 1 0 1 0 ]
	[ 0 0 0 1 0 0 1 1 1 1 ]
	[ 0 0 0 1 1 1 0 0 1 1 ]
];
